% Instance : j3029_1.sm
% Generee par parser_btp.py v2 — Projet P2 RCPSP etendu INSEA
% Type : J30 (n=30 taches reelles)
% CORRECTION v2 : H reduit de 177 -> 177
%                 Indices taches beton/equip en 1-based (MiniZinc 1..n)
%                 Stock ciment avec marge 5% (contrainte active)
% Extensions : Climatique + NR + Equipements lourds + Scalabilite

% --- Parametres de base ---
n     = 30;
H     = 177;
n_res = 4;

% --- Durees des taches (jours) ---
duree = [9, 4, 9, 8, 4, 2, 4, 2, 4, 7, 5, 10, 5, 2, 9, 10, 3, 9, 10, 6, 8, 9, 1, 1, 6, 9, 6, 3, 10, 2];

% --- Capacites ressources renouvelables standard ---
capacite = [15, 16, 16, 15];

% --- Demandes en ressources renouvelables [tache, ressource] ---
besoin = [| 1, 6, 2, 3 | 5, 2, 10, 6 | 2, 3, 3, 9 | 6, 4, 7, 1 | 2, 6, 8, 9 | 7, 7, 5, 6 | 9, 6, 9, 10 | 8, 5, 2, 6 | 1, 4, 1, 10 | 9, 9, 8, 9 | 5, 5, 3, 5 | 5, 7, 3, 2 | 4, 7, 6, 4 | 4, 2, 2, 10 | 5, 6, 9, 9 | 8, 8, 5, 5 | 1, 9, 3, 7 | 3, 3, 7, 3 | 8, 10, 6, 10 | 7, 4, 4, 4 | 1, 3, 1, 7 | 6, 4, 8, 1 | 10, 7, 10, 4 | 6, 7, 1, 7 | 7, 4, 8, 10 | 10, 9, 6, 10 | 7, 8, 3, 1 | 2, 1, 9, 7 | 2, 5, 6, 1 | 5, 5, 2, 8 |];

% --- Matrice de precedence [i,j]=1 si i doit finir avant j ---
prec = [| 0, 0, 0, 0, 0, 1, 0, 0, 0, 0, 0, 0, 0, 0, 0, 0, 0, 1, 0, 0, 0, 0, 0, 0, 0, 0, 0, 0, 1, 0 | 0, 0, 0, 0, 1, 0, 0, 0, 0, 0, 1, 0, 0, 0, 0, 0, 0, 0, 0, 0, 0, 0, 0, 0, 0, 0, 0, 0, 0, 0 | 0, 0, 0, 1, 0, 0, 0, 1, 0, 0, 0, 0, 0, 0, 0, 0, 0, 0, 1, 0, 0, 0, 0, 0, 0, 0, 0, 0, 0, 0 | 0, 0, 0, 0, 0, 0, 0, 0, 1, 0, 0, 0, 0, 0, 0, 1, 0, 0, 0, 0, 0, 1, 0, 0, 0, 0, 0, 0, 0, 0 | 0, 0, 0, 0, 0, 0, 0, 0, 0, 0, 0, 1, 1, 0, 0, 0, 0, 0, 1, 0, 0, 0, 0, 0, 0, 0, 0, 0, 0, 0 | 0, 0, 0, 0, 0, 0, 1, 0, 0, 0, 0, 0, 0, 0, 0, 0, 0, 0, 0, 0, 0, 0, 0, 0, 0, 0, 0, 0, 0, 0 | 0, 0, 0, 0, 0, 0, 0, 0, 0, 1, 0, 0, 0, 1, 0, 0, 0, 0, 0, 0, 0, 0, 0, 1, 0, 0, 0, 0, 0, 0 | 0, 0, 0, 0, 0, 0, 0, 0, 0, 0, 0, 0, 1, 1, 0, 0, 0, 0, 0, 0, 0, 0, 1, 0, 0, 0, 0, 0, 0, 0 | 0, 0, 0, 0, 0, 0, 0, 0, 0, 0, 0, 0, 0, 0, 1, 0, 1, 0, 0, 0, 0, 0, 0, 0, 0, 0, 0, 1, 0, 0 | 0, 0, 0, 0, 0, 0, 0, 0, 0, 0, 0, 0, 0, 0, 1, 0, 0, 0, 1, 1, 0, 0, 0, 0, 0, 0, 0, 0, 0, 0 | 0, 0, 0, 0, 0, 0, 0, 0, 0, 0, 0, 0, 0, 0, 0, 0, 0, 0, 0, 0, 0, 0, 0, 0, 1, 0, 0, 0, 1, 0 | 0, 0, 0, 0, 0, 0, 0, 0, 0, 0, 0, 0, 0, 0, 0, 0, 0, 0, 0, 0, 0, 0, 0, 0, 0, 1, 0, 0, 0, 0 | 0, 0, 0, 0, 0, 0, 0, 0, 0, 0, 0, 0, 0, 0, 0, 1, 0, 0, 0, 0, 0, 0, 0, 0, 0, 0, 0, 0, 0, 0 | 0, 0, 0, 0, 0, 0, 0, 0, 0, 0, 0, 0, 0, 0, 0, 0, 0, 0, 0, 1, 1, 1, 0, 0, 0, 0, 0, 0, 0, 0 | 0, 0, 0, 0, 0, 0, 0, 0, 0, 0, 0, 0, 0, 0, 0, 0, 0, 0, 0, 0, 1, 0, 1, 0, 0, 0, 0, 0, 0, 0 | 0, 0, 0, 0, 0, 0, 0, 0, 0, 0, 0, 0, 0, 0, 0, 0, 0, 0, 0, 0, 0, 0, 0, 0, 0, 0, 0, 0, 0, 1 | 0, 0, 0, 0, 0, 0, 0, 0, 0, 0, 0, 0, 0, 0, 0, 0, 0, 0, 0, 1, 1, 0, 1, 0, 0, 0, 0, 0, 0, 0 | 0, 0, 0, 0, 0, 0, 0, 0, 0, 0, 0, 0, 0, 0, 0, 0, 0, 0, 0, 0, 0, 0, 0, 1, 1, 0, 0, 1, 0, 0 | 0, 0, 0, 0, 0, 0, 0, 0, 0, 0, 0, 0, 0, 0, 0, 0, 0, 0, 0, 0, 0, 0, 0, 0, 0, 0, 0, 1, 0, 0 | 0, 0, 0, 0, 0, 0, 0, 0, 0, 0, 0, 0, 0, 0, 0, 0, 0, 0, 0, 0, 0, 0, 0, 0, 0, 0, 0, 0, 0, 1 | 0, 0, 0, 0, 0, 0, 0, 0, 0, 0, 0, 0, 0, 0, 0, 0, 0, 0, 0, 0, 0, 0, 0, 0, 1, 0, 0, 0, 0, 0 | 0, 0, 0, 0, 0, 0, 0, 0, 0, 0, 0, 0, 0, 0, 0, 0, 0, 0, 0, 0, 0, 0, 0, 0, 0, 0, 1, 0, 0, 0 | 0, 0, 0, 0, 0, 0, 0, 0, 0, 0, 0, 0, 0, 0, 0, 0, 0, 0, 0, 0, 0, 0, 0, 0, 0, 1, 0, 0, 0, 0 | 0, 0, 0, 0, 0, 0, 0, 0, 0, 0, 0, 0, 0, 0, 0, 0, 0, 0, 0, 0, 0, 0, 0, 0, 0, 0, 1, 0, 0, 0 | 0, 0, 0, 0, 0, 0, 0, 0, 0, 0, 0, 0, 0, 0, 0, 0, 0, 0, 0, 0, 0, 0, 0, 0, 0, 1, 0, 0, 0, 0 | 0, 0, 0, 0, 0, 0, 0, 0, 0, 0, 0, 0, 0, 0, 0, 0, 0, 0, 0, 0, 0, 0, 0, 0, 0, 0, 1, 0, 0, 0 | 0, 0, 0, 0, 0, 0, 0, 0, 0, 0, 0, 0, 0, 0, 0, 0, 0, 0, 0, 0, 0, 0, 0, 0, 0, 0, 0, 0, 0, 1 | 0, 0, 0, 0, 0, 0, 0, 0, 0, 0, 0, 0, 0, 0, 0, 0, 0, 0, 0, 0, 0, 0, 0, 0, 0, 0, 0, 0, 0, 0 | 0, 0, 0, 0, 0, 0, 0, 0, 0, 0, 0, 0, 0, 0, 0, 0, 0, 0, 0, 0, 0, 0, 0, 0, 0, 0, 0, 0, 0, 0 | 0, 0, 0, 0, 0, 0, 0, 0, 0, 0, 0, 0, 0, 0, 0, 0, 0, 0, 0, 0, 0, 0, 0, 0, 0, 0, 0, 0, 0, 0 |];

% --- Extension A : Fenetre climatique ---
debut_ete = 80;
fin_ete   = 140;

% --- Extension B : Taches beton (indices 1-based pour MiniZinc) ---
% NOTE: 5 taches beton identifiees
TACHES_BETON = {3, 6, 9, 14, 20};

% --- Extension C : Ressource non-renouvelable (ciment) ---
% NOTE: sum(ciment)=200t, stock=210t (marge ~5%)
stock_NR = 210;
ciment   = [0, 50, 0, 0, 40, 0, 0, 30, 0, 0, 0, 0, 45, 0, 0, 0, 0, 0, 35, 0, 0, 0, 0, 0, 0, 0, 0, 0, 0, 0];

% --- Extension D : Equipements lourds partages ---
n_equipements = 2;
capacite_equipement = [2, 1];
besoin_equipement = [| 0, 0 | 1, 1 | 1, 0 | 0, 0 | 1, 1 | 1, 0 | 0, 0 | 1, 1 | 1, 0 | 0, 0 | 0, 0 | 0, 0 | 1, 1 | 1, 0 | 0, 0 | 0, 0 | 0, 0 | 0, 0 | 1, 1 | 0, 0 | 0, 0 | 0, 0 | 0, 0 | 0, 0 | 0, 0 | 0, 0 | 0, 0 | 0, 0 | 0, 0 | 0, 0 |];
